c nombre: 19
c densidad: 0.3
p edges 20 59
e 1 2
e 1 3
e 1 4
e 1 9
e 1 12
e 1 16
e 1 19
e 1 20
e 2 10
e 2 17
e 3 9
e 3 10
e 3 12
e 3 16
e 4 6
e 4 7
e 4 9
e 4 12
e 4 14
e 4 16
e 4 18
e 4 20
e 5 7
e 5 11
e 5 13
e 5 15
e 5 19
e 6 15
e 6 16
e 6 17
e 6 18
e 7 12
e 7 16
e 7 17
e 8 9
e 8 10
e 8 14
e 9 15
e 9 18
e 10 13
e 10 17
e 10 18
e 11 12
e 11 13
e 11 14
e 11 15
e 11 16
e 11 20
e 12 16
e 13 19
e 14 19
e 14 20
e 15 16
e 15 17
e 16 19
e 16 20
e 17 18
e 17 20
e 18 20
